<instance format="XCSP3" type="CSP">
  <variables>
    <var id="x0"> 7..9 12 </var>
    <var id="x1"> 0 5 8 </var>
    <var id="x2"> 5 7 9 </var>
    <var id="x3"> 5 8 12 </var>
    <var id="x4"> 3 8 12 </var>
    <var id="x5"> 3 8 12 </var>
    <var id="x6"> 5 7 8 </var>
    <var id="x7"> 5 10..12 </var>
    <var id="x8"> 1 5 7 11 </var>
    <var id="x9"> 1 5 11 12 </var>
    <var id="x10"> 6 10 12 </var>
    <var id="x11"> 1 6 12 </var>
    <var id="x12"> 1 7 10..12 </var>
    <var id="x13"> 1 5..7 10 11 </var>
    <var id="x14"> 3 6 8 9 11 14 </var>
    <var id="x15"> 6 8..11 </var>
    <var id="x16"> 3 6 8 14 </var>
    <var id="x17"> 3 9..11 </var>
    <var id="x18"> 6 8 10 11 </var>
    <var id="x19"> 3 9 11 14 </var>
    <var id="x20"> 3 8 14 </var>
    <var id="x21"> 4 6 11 12 </var>
    <var id="x22"> 1 6 11 </var>
    <var id="x23"> 1 6 10..12 </var>
    <var id="x24"> 1 3 4 6 </var>
    <var id="x25"> 3 4 6 10 12 </var>
    <var id="x26"> 1 6 10 11 </var>
    <var id="x27"> 1 3 </var>
    <var id="x28"> 8 9 11 14 </var>
    <var id="x29"> 1 4 7 9 11 </var>
    <var id="x30"> 1 8 9 11 </var>
    <var id="x31"> 4 7..9 14 </var>
    <var id="x32"> 1 8 14 </var>
    <var id="x33"> 1 7 9 11 </var>
    <var id="x34"> 4 7 9 11 14 </var>
    <var id="x35"> 3 8 11 12 </var>
    <var id="x36"> 2 5 8 11 12 </var>
    <var id="x37"> 2..4 13 </var>
    <var id="x38"> 3 4 8 12 </var>
    <var id="x39"> 4 8 12 </var>
    <var id="x40"> 3 11..13 </var>
    <var id="x41"> 3 4 11 12 </var>
    <var id="x42"> 2 3 5 8 </var>
    <var id="x43"> 7 8 11 </var>
    <var id="x44"> 0 2 8 11 </var>
    <var id="x45"> 2 3 14 </var>
    <var id="x46"> 2 8 11 14 </var>
    <var id="x47"> 0 7 8 14 </var>
    <var id="x48"> 3 8 14 </var>
    <var id="x49"> 3 7 11 </var>
    <var id="x50"> 8 11 12 </var>
    <var id="x51"> 8 11 12 14 </var>
    <var id="x52"> 1 8 11 12 14 </var>
    <var id="x53"> 8 10 12 14 </var>
    <var id="x54"> 1 8 12..14 </var>
    <var id="x55"> 11 12 14 </var>
    <var id="x56"> 1 8 14 </var>
    <var id="x57"> 3 8 11 12 </var>
    <var id="x58"> 5 8 10..12 </var>
    <var id="x59"> 4 5 11 </var>
    <var id="x60"> 3 4 </var>
    <var id="x61"> 5 8 11 12 </var>
    <var id="x62"> 3 10..12 </var>
    <var id="x63"> 5 8 10 11 </var>
    <var id="x64"> 6..9 12 </var>
    <var id="x65"> 8 12 </var>
    <var id="x66"> 1 7 9 </var>
    <var id="x67"> 1 6 8 9 12 </var>
    <var id="x68"> 7..9 12 14 </var>
    <var id="x69"> 1 6..8 </var>
    <var id="x70"> 1 8 14 </var>
    <var id="x71"> 6 9 14 </var>
    <var id="x72"> 5 </var>
    <var id="x73"> 1 5 6 13 </var>
    <var id="x74"> 1 4 5 9 13 </var>
    <var id="x75"> 1 6 9 </var>
    <var id="x76"> 1 4 6 13 14 </var>
    <var id="x77"> 4 9 14 </var>
    <var id="x78"> 6 8 12 </var>
    <var id="x79"> 3 6 8 12 </var>
    <var id="x80"> 1 6 8 13 </var>
    <var id="x81"> 1 6 8 12 </var>
    <var id="x82"> 3 6 8 12 </var>
    <var id="x83"> 1 3 12 13 </var>
    <var id="x84"> 1..3 8 </var>
    <var id="x85"> 1 5 8 11 13 </var>
    <var id="x86"> 1 13 14 </var>
    <var id="x87"> 1 5 8 11 12 14 </var>
    <var id="x88"> 8 12 14 </var>
    <var id="x89"> 8 12 14 </var>
    <var id="x90"> 1 5 8 11 </var>
    <var id="x91"> 11 12 14 </var>
    <var id="x92"> 0 2 11 </var>
    <var id="x93"> 0 6 11 </var>
    <var id="x94"> 7 9 11 </var>
    <var id="x95"> 6 9 11 </var>
    <var id="x96"> 2 11 14 </var>
    <var id="x97"> 0 7 9 14 </var>
    <var id="x98"> 7 9 11 14 </var>
    <var id="x99"> 4 6 8 9 12 </var>
    <var id="x100"> 0 1 6 8 </var>
    <var id="x101"> 1 4 6 </var>
    <var id="x102"> 1 6 8 12 </var>
    <var id="x103"> 1 9 12 </var>
    <var id="x104"> 4 9 12 </var>
    <var id="x105"> 0 1 8 </var>
  </variables>
  <constraints>
    <group>
      <allDifferent> %... </allDifferent>
      <args> x0 x1 x2 x3 x4 x5 x6 </args>
      <args> x7 x8 x9 x10 x11 x12 x13 </args>
      <args> x14 x15 x16 x17 x18 x19 x20 </args>
      <args> x21 x22 x23 x24 x25 x26 x27 </args>
      <args> x28 x29 x30 x31 x32 x33 x34 </args>
      <args> x35 x36 x37 x38 x39 x40 x41 x42 </args>
      <args> x43 x44 x45 x46 x47 x48 x49 </args>
      <args> x50 x51 x52 x53 x54 x55 x56 </args>
      <args> x57 x58 x59 x60 x61 x62 x63 </args>
      <args> x64 x65 x66 x67 x68 x69 x70 </args>
      <args> x71 x72 x73 x74 x75 x76 x77 </args>
      <args> x78 x79 x80 x81 x82 x83 x84 </args>
      <args> x85 x86 x87 x88 x89 x90 x91 </args>
      <args> x92 x93 x94 x95 x96 x97 x98 </args>
      <args> x99 x100 x101 x102 x103 x104 x105 </args>
      <args> x0 x21 x43 x50 x64 x78 x99 </args>
      <args> x14 x28 x35 x51 x57 x71 x79 </args>
      <args> x7 x36 x44 x58 x65 x72 x92 </args>
      <args> x1 x22 x73 x80 x85 x93 x100 </args>
      <args> x2 x8 x29 x59 x66 x74 x94 </args>
      <args> x15 x23 x30 x67 x75 x81 x95 </args>
      <args> x24 x37 x45 x60 x76 x86 x101 </args>
      <args> x3 x9 x46 x52 x61 x87 x96 </args>
      <args> x4 x10 x25 x38 x53 x82 x88 </args>
      <args> x31 x39 x47 x68 x77 x89 x97 </args>
      <args> x5 x11 x16 x32 x48 x54 x102 </args>
      <args> x12 x17 x33 x40 x49 x62 x83 x103 </args>
      <args> x6 x13 x18 x26 x63 x69 x90 </args>
      <args> x19 x34 x41 x55 x91 x98 x104 </args>
      <args> x20 x27 x42 x56 x70 x84 x105 </args>
    </group>
  </constraints>
</instance>

